minFix = 3;
maxFix = 6;
NExt = 4;
HExt = [67, 24, 24, 24];
WExt = [67, 24, 24, 24];
XExt = [31, 642, 663, 642];
YExt = [165, 342, 186, 31];
ineq_coeff = [| -131, -614, 0, 0, 89908,
  | 0, -7, 0, 0, 157,
  | 0, -7, 3, 0, -1696,
  | 0, -6, 5, 0, -3334,
  | 0, -3, 7, 0, -4528,
  | 0, -11, 44, 0, -30454,
  | 0, -8, 45, 0, -31128,
  | 0, -5, 46, 0, -31795,
  | 0, -2, 46, 0, -32452,
  | 0, 0, 46, 2, -33096,
  | 0, 0, 46, 5, -33724,
  | 0, 0, 45, 8, -34332,
  | 0, 0, 44, 11, -34917,
  | 0, 0, 7, 3, -5862,
  | 0, 0, 5, 6, -5548,
  | 0, 0, 3, 7, -4485,
  | 0, 0, 0, 7, -2820,
  | -131, 0, 0, 614, -154512,
  | -3, 0, 0, 11, -2605,
  | -5, 0, 0, 10, -2354,
  | -7, 0, 0, 9, -2055,
  | -8, 0, 0, 8, -1717,
  | -9, 0, 0, 6, -1351,
  | -10, 0, 0, 5, -966,
  | -11, 0, 0, 3, -574,
  | -11, 0, 0, 1, -186,
  | -11, -1, 0, 0, 186,
  | -11, -3, 0, 0, 533,
  | -10, -5, 0, 0, 844,
  | -9, -6, 0, 0, 1110,
  | -8, -8, 0, 0, 1323,
  | -7, -9, 0, 0, 1477,
  | -5, -10, 0, 0, 1569,
  | -3, -11, 0, 0, 1594,
|];
NIneq =  34